% File represents an instance of a Composite Structure problem to be solved by a CP framework
% Created on 2025-03-26 10:41:36.551
T = 54;
n = 25;
m = 40;
edges = [(1, 2),
(6, 7),
(11, 12),
(16, 17),
(22, 21),
(3, 2),
(8, 7),
(13, 12),
(18, 17),
(23, 22),
(4, 3),
(9, 8),
(14, 13),
(19, 18),
(24, 23),
(4, 5),
(9, 10),
(14, 15),
(20, 19),
(25, 24),
(6, 1),
(11, 6),
(11, 16),
(16, 21),
(2, 7),
(12, 7),
(12, 17),
(22, 17),
(3, 8),
(13, 8),
(13, 18),
(18, 23),
(9, 4),
(9, 14),
(14, 19),
(19, 24),
(10, 5),
(10, 15),
(20, 15),
(20, 25)];
counts = [|16, 12, 16, 4,
|16, 12, 16, 2,
|16, 14, 16, 4,
|16, 14, 16, 6,
|16, 10, 16, 6,
|16, 14, 16, 4,
|16, 10, 16, 2,
|16, 12, 16, 4,
|16, 14, 16, 8,
|16, 12, 16, 6,
|16, 14, 16, 6,
|16, 10, 16, 4,
|16, 14, 16, 4,
|16, 14, 16, 6,
|16, 12, 16, 4,
|16, 10, 16, 4,
|14, 10, 14, 2,
|14, 14, 14, 4,
|16, 14, 16, 4,
|16, 16, 16, 4,
|14, 10, 14, 2,
|14, 12, 14, 2,
|14, 14, 14, 2,
|16, 14, 16, 2,
|16, 16, 16, 2|];
